%%%%%%%%%%%%%%%%%%%%%%%%%%%%%%%%%%%%%%%%%%%%%%%%%%%%%%%%%%%%%%%%%%%%%%%%%
%FILE DATA:	Soccer Computational Problem for MiniZinc Models
%AUTHORS:	Robinson Duque, Alejandro Arbelaez, Juan Francisco Díaz
%CONTACT:  	robinson.duque@correounivalle.edu.co 
%LAST UPDATE:	May, 2018 
%ROUND ROBIN:2
%TEAMS:20
%PRESENT FIXTURE:24
%FIXTURES TO PLAY:14
%GAMES TO PLAY:140
%%%%%%%%%%%%%%%%%%%%%%%%%%%%%%%%%%%%%%%%%%%%%%%%%%%%%%%%%%%%%%%%%%%%%%%%%
%Number of teams:
n=20;

%For the purpose of our models, we offer two representations of the games to play, namely fixtures and games to play:

%Fixtures to play:
%fixtures=[|0,1,1,1,1,1,1,1,0,0,1,1,1,1,0,0,0,1,1,1
%|1,0,0,1,1,0,0,0,0,1,1,1,1,1,1,1,1,1,1,1
%|1,0,0,1,0,0,1,1,1,1,1,1,0,0,1,1,1,1,1,1
%|1,1,1,0,1,1,1,0,0,1,0,0,1,1,0,1,1,1,1,1
%|1,1,0,1,0,1,1,0,1,1,1,1,1,0,0,1,1,0,1,1
%|1,0,0,1,1,0,1,1,0,1,0,1,0,1,1,1,1,1,1,1
%|1,0,1,1,1,1,0,0,1,1,0,0,1,1,0,1,1,1,1,1
%|1,0,1,0,0,1,0,0,0,1,1,1,1,1,1,1,1,1,1,1
%|0,0,1,0,1,0,1,0,0,1,1,1,1,1,1,1,1,1,1,1
%|0,1,1,1,1,1,1,1,1,0,1,0,1,1,0,0,1,0,1,1
%|1,1,1,0,1,0,0,1,1,1,0,1,0,1,1,1,1,0,1,1
%|1,1,1,0,1,1,0,1,1,0,1,0,1,0,1,1,0,1,1,1
%|1,1,0,1,1,0,1,1,1,1,0,1,0,1,1,1,1,1,0,0
%|1,1,0,1,0,1,1,1,1,1,1,0,1,0,1,1,0,1,1,0
%|0,1,1,0,0,1,0,1,1,0,1,1,1,1,0,1,1,1,1,1
%|0,1,1,1,1,1,1,1,1,0,1,1,1,1,1,0,1,0,0,0
%|0,1,1,1,1,1,1,1,1,1,1,0,1,0,1,1,0,1,0,0
%|1,1,1,1,0,1,1,1,1,0,0,1,1,1,1,0,1,0,0,1
%|1,1,1,1,1,1,1,1,1,1,1,1,0,1,1,0,0,0,0,0
%|1,1,1,1,1,1,1,1,1,1,1,1,0,0,1,0,0,1,0,0|];

%Played Fixtures:
%PlayedFixtures=[|0,1,1,1,1,1,1,1,2,2,1,1,1,1,2,2,2,1,1,1
%|1,0,2,1,1,2,2,2,2,1,1,1,1,1,1,1,1,1,1,1
%|1,2,0,1,2,2,1,1,1,1,1,1,2,2,1,1,1,1,1,1
%|1,1,1,0,1,1,1,2,2,1,2,2,1,1,2,1,1,1,1,1
%|1,1,2,1,0,1,1,2,1,1,1,1,1,2,2,1,1,2,1,1
%|1,2,2,1,1,0,1,1,2,1,2,1,2,1,1,1,1,1,1,1
%|1,2,1,1,1,1,0,2,1,1,2,2,1,1,2,1,1,1,1,1
%|1,2,1,2,2,1,2,0,2,1,1,1,1,1,1,1,1,1,1,1
%|2,2,1,2,1,2,1,2,0,1,1,1,1,1,1,1,1,1,1,1
%|2,1,1,1,1,1,1,1,1,0,1,2,1,1,2,2,1,2,1,1
%|1,1,1,2,1,2,2,1,1,1,0,1,2,1,1,1,1,2,1,1
%|1,1,1,2,1,1,2,1,1,2,1,0,1,2,1,1,2,1,1,1
%|1,1,2,1,1,2,1,1,1,1,2,1,0,1,1,1,1,1,2,2
%|1,1,2,1,2,1,1,1,1,1,1,2,1,0,1,1,2,1,1,2
%|2,1,1,2,2,1,2,1,1,2,1,1,1,1,0,1,1,1,1,1
%|2,1,1,1,1,1,1,1,1,2,1,1,1,1,1,0,1,2,2,2
%|2,1,1,1,1,1,1,1,1,1,1,2,1,2,1,1,0,1,2,2
%|1,1,1,1,2,1,1,1,1,2,2,1,1,1,1,2,1,0,2,1
%|1,1,1,1,1,1,1,1,1,1,1,1,2,1,1,2,2,2,0,2
%|1,1,1,1,1,1,1,1,1,1,1,1,2,2,1,2,2,1,2,0|];

%Games to play:
games=[|2,1|3,1|4,1|4,2|4,3|5,1|5,2|5,4|6,1|6,4|6,5|7,1|7,3|7,4|7,5|7,6|8,1|8,3|8,6|9,3|9,5|9,7|10,2|10,3|10,4|10,5|10,6|10,7|10,8|10,9|11,1|11,2|11,3|11,5|11,8|11,9|11,10|12,1|12,2|12,3|12,5|12,6|12,8|12,9|12,11|13,1|13,2|13,4|13,5|13,7|13,8|13,9|13,10|13,12|14,1|14,2|14,4|14,6|14,7|14,8|14,9|14,10|14,11|14,13|15,2|15,3|15,6|15,8|15,9|15,11|15,12|15,13|15,14|16,2|16,3|16,4|16,5|16,6|16,7|16,8|16,9|16,11|16,12|16,13|16,14|16,15|17,2|17,3|17,4|17,5|17,6|17,7|17,8|17,9|17,10|17,11|17,13|17,15|17,16|18,1|18,2|18,3|18,4|18,6|18,7|18,8|18,9|18,12|18,13|18,14|18,15|18,17|19,1|19,2|19,3|19,4|19,5|19,6|19,7|19,8|19,9|19,10|19,11|19,12|19,14|19,15|20,1|20,2|20,3|20,4|20,5|20,6|20,7|20,8|20,9|20,10|20,11|20,12|20,15|20,18|];

%Played Games:
%PlayedGames=[|2,1|3,1|3,2|3,2|4,1|4,2|4,3|5,1|5,2|5,3|5,3|5,4|6,1|6,2|6,2|6,3|6,3|6,4|6,5|7,1|7,2|7,2|7,3|7,4|7,5|7,6|8,1|8,2|8,2|8,3|8,4|8,4|8,5|8,5|8,6|8,7|8,7|9,1|9,1|9,2|9,2|9,3|9,4|9,4|9,5|9,6|9,6|9,7|9,8|9,8|10,1|10,1|10,2|10,3|10,4|10,5|10,6|10,7|10,8|10,9|11,1|11,2|11,3|11,4|11,4|11,5|11,6|11,6|11,7|11,7|11,8|11,9|11,10|12,1|12,2|12,3|12,4|12,4|12,5|12,6|12,7|12,7|12,8|12,9|12,10|12,10|12,11|13,1|13,2|13,3|13,3|13,4|13,5|13,6|13,6|13,7|13,8|13,9|13,10|13,11|13,11|13,12|14,1|14,2|14,3|14,3|14,4|14,5|14,5|14,6|14,7|14,8|14,9|14,10|14,11|14,12|14,12|14,13|15,1|15,1|15,2|15,3|15,4|15,4|15,5|15,5|15,6|15,7|15,7|15,8|15,9|15,10|15,10|15,11|15,12|15,13|15,14|16,1|16,1|16,2|16,3|16,4|16,5|16,6|16,7|16,8|16,9|16,10|16,10|16,11|16,12|16,13|16,14|16,15|17,1|17,1|17,2|17,3|17,4|17,5|17,6|17,7|17,8|17,9|17,10|17,11|17,12|17,12|17,13|17,14|17,14|17,15|17,16|18,1|18,2|18,3|18,4|18,5|18,5|18,6|18,7|18,8|18,9|18,10|18,10|18,11|18,11|18,12|18,13|18,14|18,15|18,16|18,16|18,17|19,1|19,2|19,3|19,4|19,5|19,6|19,7|19,8|19,9|19,10|19,11|19,12|19,13|19,13|19,14|19,15|19,16|19,16|19,17|19,17|19,18|19,18|20,1|20,2|20,3|20,4|20,5|20,6|20,7|20,8|20,9|20,10|20,11|20,12|20,13|20,13|20,14|20,14|20,15|20,16|20,16|20,17|20,17|20,18|20,19|20,19|];

%Played Games - Win Results:
%% 0  1  1  0  1  0  0  1  0  0  0  0  0  0  2  0  0  0  0  0
%% 0  0  0  0  0  0  0  0  0  0  0  0  0  0  0  0  1  0  0  0
%% 0  0  0  0  0  0  0  0  0  0  0  0  0  0  0  0  0  0  0  0
%% 0  0  0  0  0  0  0  0  0  0  0  0  0  0  0  0  0  0  0  0
%% 0  0  0  0  0  1  0  0  0  0  0  0  0  0  0  0  1  0  0  0
%% 0  0  0  0  0  0  0  0  0  0  0  0  0  0  0  0  0  0  0  0
%% 0  0  1  0  0  0  0  0  0  1  2  1  1  1  1  0  0  0  0  0
%% 0  0  0  0  0  0  0  0  0  0  0  0  0  0  0  0  1  0  0  0
%% 0  0  1  0  0  0  0  0  0  0  0  0  0  1  0  0  1  0  0  0
%% 0  1  1  1  0  1  0  1  1  0  1  0  1  0  2  0  1  0  0  1
%% 1  0  1  0  1  0  0  1  0  0  0  0  0  0  0  0  0  0  0  0
%% 0  1  1  0  0  0  0  1  1  0  0  0  0  0  1  0  0  0  0  0
%% 1  1  0  0  0  0  0  1  1  0  0  0  0  0  0  0  0  0  0  2
%% 0  0  0  0  0  0  0  0  0  0  0  0  0  0  0  0  0  0  0  0
%% 0  1  0  0  0  0  0  1  1  0  0  0  0  0  0  0  0  0  0  0
%% 0  1  1  0  1  0  1  1  1  2  1  0  0  0  0  0  0  2  0  2
%% 0  0  0  0  0  0  0  0  0  0  0  0  0  0  0  0  0  0  0  0
%% 1  0  1  0  0  1  1  0  1  0  0  1  1  1  0  0  0  0  0  0
%% 1  1  0  0  0  1  1  1  1  1  0  0  2  1  1  2  0  2  0  2
%% 1  0  0  0  1  1  0  1  0  0  1  0  0  0  0  0  0  0  0  0
%Played Games - Tie Results:
%% 0  0  0  1  0  1  1  0  2  2  0  1  0  1  0  2  2  0  0  0
%% 0  0  2  1  1  2  2  2  2  0  1  0  0  1  0  0  0  1  0  1
%% 0  2  0  1  2  2  0  1  0  0  0  0  2  2  1  0  1  0  1  1
%% 1  1  1  0  1  1  1  2  2  0  2  2  1  1  2  1  1  1  1  1
%% 0  1  2  1  0  0  1  2  1  1  0  1  1  2  2  0  0  2  1  0
%% 1  2  2  1  0  0  1  1  2  0  2  1  2  1  1  1  1  0  0  0
%% 1  2  0  1  1  1  0  2  1  0  0  1  0  0  1  0  1  0  0  1
%% 0  2  1  2  2  1  2  0  2  0  0  0  0  1  0  0  0  1  0  0
%% 2  2  0  2  1  2  1  2  0  0  1  0  0  0  0  0  0  0  0  1
%% 2  0  0  0  1  0  0  0  0  0  0  2  0  1  0  0  0  2  0  0
%% 0  1  0  2  0  2  0  0  1  0  0  1  2  1  1  0  1  2  1  0
%% 1  0  0  2  1  1  1  0  0  2  1  0  1  2  0  1  2  0  1  1
%% 0  0  2  1  1  2  0  0  0  0  2  1  0  1  1  1  1  0  0  0
%% 1  1  2  1  2  1  0  1  0  1  1  2  1  0  1  1  2  0  0  2
%% 0  0  1  2  2  1  1  0  0  0  1  0  1  1  0  1  1  1  0  1
%% 2  0  0  1  0  1  0  0  0  0  0  1  1  1  1  0  1  0  0  0
%% 2  0  1  1  0  1  1  0  0  0  1  2  1  2  1  1  0  1  2  2
%% 0  1  0  1  2  0  0  1  0  2  2  0  0  0  1  0  1  0  0  1
%% 0  0  1  1  1  0  0  0  0  0  1  1  0  0  0  0  2  0  0  0
%% 0  1  1  1  0  0  1  0  1  0  0  1  0  2  1  0  2  1  0  0
%Played Games - Lose Results:
%% 0  0  0  0  0  0  0  0  0  0  1  0  1  0  0  0  0  1  1  1
%% 1  0  0  0  0  0  0  0  0  1  0  1  1  0  1  1  0  0  1  0
%% 1  0  0  0  0  0  1  0  1  1  1  1  0  0  0  1  0  1  0  0
%% 0  0  0  0  0  0  0  0  0  1  0  0  0  0  0  0  0  0  0  0
%% 1  0  0  0  0  0  0  0  0  0  1  0  0  0  0  1  0  0  0  1
%% 0  0  0  0  1  0  0  0  0  1  0  0  0  0  0  0  0  1  1  1
%% 0  0  0  0  0  0  0  0  0  0  0  0  0  0  0  1  0  1  1  0
%% 1  0  0  0  0  0  0  0  0  1  1  1  1  0  1  1  0  0  1  1
%% 0  0  0  0  0  0  0  0  0  1  0  1  1  0  1  1  0  1  1  0
%% 0  0  0  0  0  0  1  0  0  0  0  0  0  0  0  2  0  0  1  0
%% 0  0  0  0  0  0  2  0  0  1  0  0  0  0  0  1  0  0  0  1
%% 0  0  0  0  0  0  1  0  0  0  0  0  0  0  0  0  0  1  0  0
%% 0  0  0  0  0  0  1  0  0  1  0  0  0  0  0  0  0  1  2  0
%% 0  0  0  0  0  0  1  0  1  0  0  0  0  0  0  0  0  1  1  0
%% 2  0  0  0  0  0  1  0  0  2  0  1  0  0  0  0  0  0  1  0
%% 0  0  0  0  0  0  0  0  0  0  0  0  0  0  0  0  0  0  2  0
%% 0  1  0  0  1  0  0  1  1  1  0  0  0  0  0  0  0  0  0  0
%% 0  0  0  0  0  0  0  0  0  0  0  0  0  0  0  2  0  0  2  0
%% 0  0  0  0  0  0  0  0  0  0  0  0  0  0  0  0  0  0  0  0
%% 0  0  0  0  0  0  0  0  0  1  0  0  2  0  0  2  0  0  2  0

%%Initial points:
iPoints=[31, 19, 16, 23, 24, 19, 37, 17, 23, 44, 27, 32, 31, 20, 23, 48, 19, 36, 58, 27];

%%Initial positions:
%iPositions=[8, 18, 20, 14, 11, 17, 4, 19, 13, 3, 10, 6, 7, 15, 12, 2, 16, 5, 1, 9];

%%Position Constraints:
%numberPositionConstraints=1;

%%Total Fixtures:
%totalFixtures=38;

%%Fixtures to Play:
%fixturesToPlay=14;

%%Position Constraints Built With
%wantedPoints=[0, 0, 1, 3, 3, 1, 1, 0, 3, 0, 0, 1, 0, 1, 1, 3, 1, 1, 1, 0, 3, 1, 0, 1, 3, 0, 3, 1, 1, 1, 0, 3, 3, 1, 1, 1, 3, 3, 0, 1, 3, 1, 0, 3, 1, 0, 1, 1, 0, 1, 0, 3, 3, 0, 3, 0, 0, 3, 3, 3, 1, 3, 1, 3, 0, 3, 1, 1, 1, 0, 3, 3, 3, 0, 0, 0, 1, 1, 0, 0, 3, 3, 1, 0, 0, 1, 1, 3, 1, 1, 1, 3, 1, 1, 0, 1, 3, 3, 0, 3, 3, 1, 3, 1, 3, 0, 3, 0, 0, 0, 3, 1, 3, 3, 0, 3, 3, 0, 1, 0, 3, 1, 3, 1, 0, 3, 3, 3, 3, 3, 1, 1, 0, 0, 1, 0, 0, 0, 1, 3];

%%Probabilities:
probabilities=[|59,6,0,35,|67,22,0,11,|58,29,0,13,|94,0,0,6,|91,5,0,4,|10,75,0,15,|86,6,0,8,|30,65,0,5,|87,12,0,1,|77,12,0,11,|47,9,0,44,|4,38,0,58,|7,62,0,31,|28,22,0,50,|76,5,0,19,|76,22,0,2,|6,85,0,9,|10,79,0,11,|83,15,0,2,|33,20,0,47,|50,19,0,31,|65,16,0,19,|89,2,0,9,|78,11,0,11,|8,72,0,20,|72,10,0,18,|19,76,0,5,|70,21,0,9,|78,19,0,3,|8,45,0,47,|25,0,0,75,|88,9,0,3,|38,18,0,44,|90,5,0,5,|95,1,0,4,|21,77,0,2,|80,15,0,5,|7,1,0,92,|23,25,0,52,|81,12,0,7,|76,11,0,13,|87,6,0,7,|7,82,0,11,|94,4,0,2,|61,13,0,26,|76,4,0,20,|89,4,0,7,|43,9,0,48,|56,19,0,25,|59,28,0,13,|1,57,0,42,|9,64,0,27,|62,4,0,34,|89,0,0,11,|32,10,0,58,|36,2,0,62,|7,80,0,13,|94,2,0,4,|87,10,0,3,|100,0,0,0,|95,3,0,2,|98,1,0,1,|95,5,0,0,|100,0,0,0,|57,31,0,12,|2,78,0,20,|26,68,0,6,|22,28,0,50,|79,3,0,18,|15,82,0,3,|66,2,0,32,|89,0,0,11,|93,1,0,6,|5,82,0,13,|29,65,0,6,|44,20,0,36,|16,52,0,32,|26,25,0,49,|93,2,0,5,|19,64,0,17,|1,57,0,42,|39,6,0,55,|81,13,0,6,|76,17,0,7,|36,26,0,38,|65,15,0,20,|11,51,0,38,|57,40,0,3,|74,1,0,25,|53,23,0,24,|19,17,0,64,|28,34,0,38,|51,39,0,10,|34,20,0,46,|97,3,0,0,|40,54,0,6,|75,21,0,4,|2,32,0,66,|30,60,0,10,|5,47,0,48,|41,34,0,25,|22,10,0,68,|49,25,0,26,|85,4,0,11,|8,74,0,18,|41,39,0,20,|68,31,0,1,|54,16,0,30,|21,15,0,64,|10,23,0,67,|76,20,0,4,|81,5,0,14,|88,8,0,4,|97,0,0,3,|96,4,0,0,|43,11,0,46,|5,92,0,3,|20,56,0,24,|59,18,0,23,|83,3,0,14,|61,25,0,14,|1,60,0,39,|46,35,0,19,|75,10,0,15,|3,69,0,28,|20,3,0,77,|2,11,0,87,|99,0,0,1,|5,65,0,30,|63,37,0,0,|99,0,0,1,|1,97,0,2,|36,0,0,64,|96,4,0,0,|100,0,0,0,|99,1,0,0,|44,49,0,7,|87,13,0,0,|70,16,0,14,|41,20,0,39,|];


%POSITION CONSTRAINTS
%%[|teamID, operator, position|...]
%%operators index:
%%%1 for =  operator
%%%2 for >  operator
%%%3 for >= operator
%%%4 for <  operator
%%%5 for <= operator

positionConstraints=[|6,1,19|];

%SCORE VECTOR CONSTRAINTS
%%[|teamID, operator, wantedPoints|...]
%%operators index:
%%%1 for =  operator
%%%2 for >  operator
%%%3 for >= operator
%%%4 for <  operator
%%%5 for <= operator

%scoreVectorConstraints=[|6,1,32|];

%Instance Features:
%features=T,FP,TF,C,C/T,C/TF,FP/TF,FP/T,FP*C/T,FP*T/C,(C/T)*(FP/TF),Distance,Distance/C,Distance/T,Distance/(C*T)
%values=20,14,38,1,0.05,0.02631578947368421,0.3684210526315789,0.7,0.7,280.0,0.01842105263157895,2,2.0,0.1,0.1



